%mem=8gb
%nproc = 16
#p hf 6-31g* force nosymm

a

0  1
O   -5.2135160000   -9.0300740000   -8.2800000000
H   -4.7604150000   -9.8193660000   -7.9745210000
H   -6.1236140000   -9.0323230000   -7.9745210000



