%mem=8gb
%nproc = 16
#p hf 6-31g* force nosymm

a

0  1
O     -5.213516   -9.030074   -8.280000
 H     -4.760415   -9.819366   -7.974521
 H     -6.123614   -9.032323   -7.974521






