%mem=8gb
%nproc = 16
#p b3lyp

a

0  1
O     -5.213516   -9.030074   -8.280000
 H     -4.760415   -9.819366   -7.974521
 H     -6.123614   -9.032323   -7.974521
 O     -1.303672   -6.772454   -8.280000
 H     -2.213770   -6.770205   -7.974521



